* Signature: 0x3d648cd0b0c546
NAME lp_typeD_046
OBJSENSE MAX
ROWS
 N  OBJ
 L  c0      
 L  c1      
 G  c2      
 G  c3      
 L  c_key_upper
 G  c_key_lower
 G  _chain_constr_1
 G  _chain_constr_2
 G  _chain_constr_3
 G  _chain_cycle
COLUMNS
    x0        OBJ       1.2492314096384378e+00
    x0        c0        1.3801169107605280e+00
    x0        c1        1.9839728687017730e+00
    x0        c2        7.6537695857285093e-01
    x0        c3        5.2903596527784336e-01
    x0        c_key_upper  1.0066980614358534e+00
    x0        c_key_lower  1.0066980614358534e+00
    x1        OBJ       1.4454633025338897e+00
    x1        c0        7.6893935366061639e-01
    x1        c1        1.9599370122324391e+00
    x1        c2        1.0896192760291008e+00
    x1        c3        1.2425444420817537e+00
    x1        c_key_upper  1.4014139842316018e+00
    x1        c_key_lower  1.4014139842316018e+00
    x2        OBJ       1.41235939572264
    x2        c0        7.8048701200626880e-01
    x2        c1        1.9888306914731433e+00
    x2        c2        1.7012201184026639e+00
    x2        c3        1.8551057164522120e+00
    x2        c_key_upper  1.3167260212601692e+00
    x2        c_key_lower  1.3167260212601692e+00
    x3        OBJ       9.7174252683174789e-01
    x3        c0        9.7593597476252847e-01
    x3        c1        7.7906538345273391e-01
    x3        c2        7.4439736787990940e-01
    x3        c3        7.0493036029203981e-01
    x3        c_key_upper  1.3525546256600389e+00
    x3        c_key_lower  1.3525546256600389e+00
    x4        OBJ       1.1351605190109817e+00
    x4        c0        5.2246013415911285e-01
    x4        c1        1.1454490399490309e+00
    x4        c2        1.3920354387195149e+00
    x4        c3        1.2817437601266997e+00
    x4        c_key_upper  1.6412405261017580e+00
    x4        c_key_lower  1.6412405261017580e+00
    x5        OBJ       0.72144757561318
    x5        c0        1.3409829904322275e+00
    x5        c1        1.5428704352783151e+00
    x5        c2        1.7030715000775309e+00
    x5        c3        1.1669674307825519e+00
    x5        c_key_upper  1.5580493165737150e+00
    x5        c_key_lower  1.5580493165737150e+00
    x6        OBJ       6.2008915699233458e-01
    x6        c0        7.5715507485284217e-01
    x6        c1        1.2086602464301466e+00
    x6        c2        1.3381594929928744e+00
    x6        c3        5.3703273787285788e-01
    x6        c_key_upper  1.6046833341753690e+00
    x6        c_key_lower  1.6046833341753690e+00
    x7        OBJ       8.1714382866704294e-01
    x7        c0        1.8695626995960972e+00
    x7        c1        5.8845736647147173e-01
    x7        c2        1.9624055180896909e+00
    x7        c3        1.1280560670572026e+00
    x7        c_key_upper  1.8666051501422072e+00
    x7        c_key_lower  1.8666051501422072e+00
    _chain_var_0  _chain_constr_1  -1
    _chain_var_0  _chain_cycle  1
    _chain_var_1  _chain_constr_1  1
    _chain_var_1  _chain_constr_2  -1
    _chain_var_2  _chain_constr_2  1
    _chain_var_2  _chain_constr_3  -1
    _chain_var_3  _chain_constr_3  1
    _chain_var_3  _chain_cycle  -1
RHS
    RHS1      c0        3.7419945634197006e+01
    RHS1      c1        5.1454483013794295e+01
    RHS1      c2        1.9142497211705432e+01
    RHS1      c3        1.3808055496091246e+01
    RHS1      c_key_upper  5.8739855097903565e+01
    RHS1      c_key_lower  2.9369927548951782e+01
    RHS1      _chain_constr_1  10
    RHS1      _chain_constr_2  10
    RHS1      _chain_constr_3  10
    RHS1      _chain_cycle  10
BOUNDS
 UP BND1      x0        10
 UP BND1      x1        10
 UP BND1      x2        10
 UP BND1      x3        10
 UP BND1      x4        10
 UP BND1      x5        10
 UP BND1      x6        10
 UP BND1      x7        10
 UP BND1      _chain_var_0  100
 UP BND1      _chain_var_1  100
 UP BND1      _chain_var_2  100
 UP BND1      _chain_var_3  100
ENDATA
